c CNF file corresponding to a (partial) station packing problem.
p cnf 4767 229
1 2 3 4 5 6 7 8 9 10 11 12 13 14 0
-1 -2 0
-1 -3 0
-1 -4 0
-1 -5 0
-1 -6 0
-1 -7 0
-1 -8 0
-1 -9 0
-1 -10 0
-1 -11 0
-1 -12 0
-1 -13 0
-1 -14 0
-2 -3 0
-2 -4 0
-2 -5 0
-2 -6 0
-2 -7 0
-2 -8 0
-2 -9 0
-2 -10 0
-2 -11 0
-2 -12 0
-2 -13 0
-2 -14 0
-3 -4 0
-3 -5 0
-3 -6 0
-3 -7 0
-3 -8 0
-3 -9 0
-3 -10 0
-3 -11 0
-3 -12 0
-3 -13 0
-3 -14 0
-4 -5 0
-4 -6 0
-4 -7 0
-4 -8 0
-4 -9 0
-4 -10 0
-4 -11 0
-4 -12 0
-4 -13 0
-4 -14 0
-5 -6 0
-5 -7 0
-5 -8 0
-5 -9 0
-5 -10 0
-5 -11 0
-5 -12 0
-5 -13 0
-5 -14 0
-6 -7 0
-6 -8 0
-6 -9 0
-6 -10 0
-6 -11 0
-6 -12 0
-6 -13 0
-6 -14 0
-7 -8 0
-7 -9 0
-7 -10 0
-7 -11 0
-7 -12 0
-7 -13 0
-7 -14 0
-8 -9 0
-8 -10 0
-8 -11 0
-8 -12 0
-8 -13 0
-8 -14 0
-9 -10 0
-9 -11 0
-9 -12 0
-9 -13 0
-9 -14 0
-10 -11 0
-10 -12 0
-10 -13 0
-10 -14 0
-11 -12 0
-11 -13 0
-11 -14 0
-12 -13 0
-12 -14 0
-13 -14 0
4751 4752 4753 4754 4755 4756 4757 4758 4759 4760 4761 4762 4763 4764 4765 4766 4767 0
-4751 -4752 0
-4751 -4753 0
-4751 -4754 0
-4751 -4755 0
-4751 -4756 0
-4751 -4757 0
-4751 -4758 0
-4751 -4759 0
-4751 -4760 0
-4751 -4761 0
-4751 -4762 0
-4751 -4763 0
-4751 -4764 0
-4751 -4765 0
-4751 -4766 0
-4751 -4767 0
-4752 -4753 0
-4752 -4754 0
-4752 -4755 0
-4752 -4756 0
-4752 -4757 0
-4752 -4758 0
-4752 -4759 0
-4752 -4760 0
-4752 -4761 0
-4752 -4762 0
-4752 -4763 0
-4752 -4764 0
-4752 -4765 0
-4752 -4766 0
-4752 -4767 0
-4753 -4754 0
-4753 -4755 0
-4753 -4756 0
-4753 -4757 0
-4753 -4758 0
-4753 -4759 0
-4753 -4760 0
-4753 -4761 0
-4753 -4762 0
-4753 -4763 0
-4753 -4764 0
-4753 -4765 0
-4753 -4766 0
-4753 -4767 0
-4754 -4755 0
-4754 -4756 0
-4754 -4757 0
-4754 -4758 0
-4754 -4759 0
-4754 -4760 0
-4754 -4761 0
-4754 -4762 0
-4754 -4763 0
-4754 -4764 0
-4754 -4765 0
-4754 -4766 0
-4754 -4767 0
-4755 -4756 0
-4755 -4757 0
-4755 -4758 0
-4755 -4759 0
-4755 -4760 0
-4755 -4761 0
-4755 -4762 0
-4755 -4763 0
-4755 -4764 0
-4755 -4765 0
-4755 -4766 0
-4755 -4767 0
-4756 -4757 0
-4756 -4758 0
-4756 -4759 0
-4756 -4760 0
-4756 -4761 0
-4756 -4762 0
-4756 -4763 0
-4756 -4764 0
-4756 -4765 0
-4756 -4766 0
-4756 -4767 0
-4757 -4758 0
-4757 -4759 0
-4757 -4760 0
-4757 -4761 0
-4757 -4762 0
-4757 -4763 0
-4757 -4764 0
-4757 -4765 0
-4757 -4766 0
-4757 -4767 0
-4758 -4759 0
-4758 -4760 0
-4758 -4761 0
-4758 -4762 0
-4758 -4763 0
-4758 -4764 0
-4758 -4765 0
-4758 -4766 0
-4758 -4767 0
-4759 -4760 0
-4759 -4761 0
-4759 -4762 0
-4759 -4763 0
-4759 -4764 0
-4759 -4765 0
-4759 -4766 0
-4759 -4767 0
-4760 -4761 0
-4760 -4762 0
-4760 -4763 0
-4760 -4764 0
-4760 -4765 0
-4760 -4766 0
-4760 -4767 0
-4761 -4762 0
-4761 -4763 0
-4761 -4764 0
-4761 -4765 0
-4761 -4766 0
-4761 -4767 0
-4762 -4763 0
-4762 -4764 0
-4762 -4765 0
-4762 -4766 0
-4762 -4767 0
-4763 -4764 0
-4763 -4765 0
-4763 -4766 0
-4763 -4767 0
-4764 -4765 0
-4764 -4766 0
-4764 -4767 0
-4765 -4766 0
-4765 -4767 0
-4766 -4767 0
